

























































































31 46 47 
28 59 68 
17 4 11 
52 23 55 
16 32 62 
20 0 27 15 
26 71 45 
51 67 58 25 
12 24 50 
2 57 53 
35 36 10 
5 70 33 
74 22 13 
48 61 8 
73 43 72 
19 18 64 
65 44 42 
6 21 30 
41 39 7 
66 60 1 
34 9 54 
3 29 49 
37 76 40 
69 14 63 
75 38 56 
